(declare-fun e () String)
(declare-fun c () String)
(declare-fun g () String)
(declare-fun b () String)
(declare-fun f () String)
(declare-fun h () String)
(assert (= "gfa" (str.++ "e" h b "hf" g)))
(assert (= (str.++ f "dafb") "c"))
(assert (= (str.++ "b" g "g" c h) e))

(check-sat)
